39
18
0 19 20 21 22 24 26 27 30 34 35 36 38
1 18 20 21 22 24 25 26 27 29 32 34 37 38
2 20 21 22 24 27 29 34 37
3 20 21 23 24 25 26 27 34 36 37 38
4 19 20 21 22 24 25 26 27 29 31 34 36 37
5 20 21 22 23 25 26 27 31 34 35
6 20 21 22 23 25 26 27 29 30 34 35
7 19 20 21 23 24 26 28 30 31 32 34 36
8 22 24 32 34 35 38
9 18 20 24 27 32
10 19 21 22 23 25 29 30 31 33 34 35 37
11 18 19 24 25 26 28 30 32 35
12 18 19 20 28 29 36
13 18 19 20 25 26 29 31 38
14 23 32
15 22 30 31
16
17 24
